10
1 0 3
2 0 4
2 1 8
3 0 6
3 1 9
3 2 5
4 0 1
4 1 5
4 2 8
4 3 4
5 0 10
5 1 10
5 2 7
5 3 2
5 4 1
6 0 1
6 1 3
6 2 5
6 3 7
6 4 7
6 5 1
7 0 5
7 1 3
7 2 1
7 3 6
7 4 6
7 5 1
7 6 9
8 0 5
8 1 3
8 2 4
8 3 9
8 4 9
8 5 1
8 6 1
8 7 7
9 0 9
9 1 3
9 2 2
9 3 3
9 4 9
9 5 4
9 6 5
9 7 6
9 8 4
